(set-logic SLIA)
(define-fun func0  ((A String) (B String) (C String) (D String) (E String) ) String (str.replace (str.replace C  D  E ) A  B ))
(define-fun func1  ((A String) (B String) (C String) (D String) ) String (str.replace A  B  (str.++ C  D )))
(define-fun func2  ((A String) (B String) (C String) ) String (str.++ A  (str.++ B  C )))
(define-fun func3  ((A String) (B String) (C String) (D String) ) String (str.++ A  (str.++ B  (str.++ C  D ))))
(define-fun func4  ((A String) (B String) (C String) (D Int) ) String (str.++ A  (str.++ (str.at C  D ) B )))
(define-fun func5  ((A String) (B String) (C Int) ) String (str.++ (str.at B  C ) A ))
(define-fun func6  ((A String) (B String) ) String (str.++ (str.at B  0 ) A ))
(define-fun func7  ((A String) (B Int) (C String) (D String) (E String) ) String (str.++ (str.at A  B ) (str.++ C  (str.++ D  E ))))
(define-fun func8  ((A String) (B String) (C String) (D String) (E Int) ) String (str.++ A  (str.++ B  (str.++ (str.at D  E ) C ))))
(define-fun func9  ((A String) (B Int) (C String) (D Int) ) String (str.substr A  (+ 1  (str.indexof A  C  D )) B ))
(define-fun func10  ((A String) (B Int) (C String) ) String (str.substr A  (+ 1  (str.indexof A  C  0 )) B ))
(define-fun func11  ((A String) (B Int) (C String) (D String) (E Int) ) String (str.substr A  (+ 1  (str.indexof C  D  E )) B ))
(define-fun func12  ((A String) (B Int) (C String) (D String) ) String (str.substr A  (+ 1  (str.indexof C  D  0 )) B ))
(define-fun func13  ((A String) (B Int) (C Int) ) String (str.substr A  (+ 1  C ) B ))
(define-fun func14  ((A String) (B Int) (C Int) (D String) (E Int) ) String (str.substr A  (+ C  (str.indexof A  D  E )) B ))
(define-fun func15  ((A String) (B Int) (C Int) (D String) ) String (str.substr A  (+ C  (str.indexof A  D  0 )) B ))
(define-fun func16  ((A String) (B Int) (C Int) (D String) (E String) (F Int) ) String (str.substr A  (+ C  (str.indexof D  E  F )) B ))
(define-fun func17  ((A String) (B Int) (C Int) (D String) (E String) ) String (str.substr A  (+ C  (str.indexof D  E  0 )) B ))
(define-fun func18  ((A String) (B Int) (C Int) (D Int) ) String (str.substr A  (+ C  D ) B ))
(define-fun func19  ((A String) (B Int) (C Int) ) String (str.substr A  (+ B  C ) (str.len A )))
(define-fun func20  ((A String) (B Int) (C Int) ) String (str.substr A  (+ B  C ) 3 ))
(define-fun func21  ((A String) (B Int) (C String) (D Int) ) String (str.substr A  1  (- (str.indexof A  C  D ) B )))
(define-fun func22  ((A String) (B Int) (C String) ) String (str.substr A  1  (- (str.indexof A  C  0 ) B )))
(define-fun func23  ((A String) (B Int) (C String) (D String) (E Int) ) String (str.substr A  1  (- (str.indexof C  D  E ) B )))
(define-fun func24  ((A String) (B Int) (C String) (D String) ) String (str.substr A  1  (- (str.indexof C  D  0 ) B )))
(define-fun func25  ((A String) (B String) (C String) (D Int) ) String (str.substr A  1  (- (str.indexof B  C  D ) 1 )))
(define-fun func26  ((A String) (B Int) ) String (str.substr A  1  (- B  1 )))
(define-fun func27  ((A String) (B Int) ) String (str.substr A  0  B ))
(define-fun func28  ((A String) (B String) (C Int) ) String (str.substr A  0  (str.indexof A  B  C )))
(define-fun func29  ((A String) (B String) ) String (str.substr A  0  (str.indexof A  B  0 )))
(define-fun func30  ((A String) (B String) (C String) (D Int) ) String (str.substr A  0  (str.indexof B  C  D )))
(define-fun func31  ((A String) (B String) (C String) ) String (str.substr A  0  (str.indexof B  C  0 )))
(define-fun func32  ((A String) (B Int) (C Int) (D Int) ) String (str.substr A  (- C  D ) B ))
(define-fun func33  ((A String) (B Int) (C String) (D Int) ) String (str.substr A  B  (str.indexof A  C  D )))
(define-fun func34  ((A String) (B Int) (C String) ) String (str.substr A  B  (str.indexof A  C  0 )))
(define-fun func35  ((A String) (B Int) (C String) (D String) (E Int) ) String (str.substr A  B  (str.indexof C  D  E )))
(define-fun func36  ((A String) (B Int) (C String) (D String) ) String (str.substr A  B  (str.indexof C  D  0 )))
(define-fun func37  ((A String) (B Int) ) String (str.substr A  B  (str.len A )))
(define-fun func38  ((A String) (B Int) (C String) (D String) (E Int) ) String (str.substr A  B  (- (str.indexof C  D  E ) 1 )))
(define-fun func39  ((A String) (B Int) (C Int) (D Int) ) String (str.substr A  B  (- C  D )))
(define-fun func40  ((A String) (B Int) (C Int) ) String (str.substr A  B  (- C  1 )))
(define-fun func41  ((A String) (B Int) ) String (str.substr A  B  3 ))
(define-fun func42  ((A String) (B Int) (C Int) (D String) (E String) ) String (str.substr A  (+ C  (str.indexof D  E  1 )) B ))
(define-fun func43  ((A String) (B Int) (C Int) (D String) ) String (str.substr A  (+ B  C ) (str.len D )))
(define-fun func44  ((A String) (B Int) (C String) ) String (str.substr A  B  (str.len C )))
(define-fun func45  ((A String) (B String) (C Int) ) Int (+ 1  (str.indexof A  B  C )))
(define-fun func46  ((A String) (B String) ) Int (+ 1  (str.indexof A  B  0 )))
(define-fun func47  ((A String) (B String) ) Int (+ 1  (str.indexof A  B  1 )))
(define-fun func48  ((A Int) (B Int) (C Int) ) Int (+ A  (+ B  C )))
(define-fun func49  ((A Int) (B String) (C String) (D Int) ) Int (+ A  (str.indexof B  C  D )))
(define-fun func50  ((A Int) (B String) (C String) ) Int (+ A  (str.indexof B  C  1 )))
(define-fun func51  ((A Int) (B String) (C String) ) Int (+ A  (str.indexof B  C  0 )))
(define-fun func52  ((A String) (B String) ) Int (str.indexof A  B  1 ))
(define-fun func53  ((A String) (B String) ) Int (str.indexof A  B  0 ))
(define-fun func54  ((A String) (B String) ) Bool (str.contains A  B ))
(define-fun func55  ((A Int) (B String) (C String) (D Int) ) Int (- (str.indexof B  C  D ) A ))
(define-fun func56  ((A Int) (B String) (C String) ) Int (- (str.indexof B  C  0 ) A ))
(define-fun func57  ((A String) (B String) (C Int) ) Int (- (str.indexof A  B  C ) 1 ))
(define-fun func58  ((A Int) (B String) ) Int (- (str.len B ) A ))
(define-fun func59  ((A String) ) Int (- (str.len A ) 3 ))
(define-fun func60  ((A Int) ) Int (- A  1 ))
(define-fun func61  ((A Int) ) Int (- A  3 ))
(define-fun func62  ((A String) ) String (str.at A  0 ))
(synth-fun f ((col1 String) (col2 String)) String
( (Start String (ntString))
 (ntString String (
	col1 col2 " " "," "USA" "PA" "CT" "CA" "MD" "NY" 
	(func0 ntString ntString ntString ntString ntString)
	(func1 ntString ntString ntString ntString)
	(func3 ntString ntString ntString ntString)
	(func4 ntString ntString ntString ntInt)
	(func5 ntString ntString ntInt)
	(func6 ntString ntString)
	(func8 ntString ntString ntString ntString ntInt)
	(func9 ntString ntInt ntString ntInt)
	(func10 ntString ntInt ntString)
	(func11 ntString ntInt ntString ntString ntInt)
	(func12 ntString ntInt ntString ntString)
	(func15 ntString ntInt ntInt ntString)
	(func16 ntString ntInt ntInt ntString ntString ntInt)
	(func18 ntString ntInt ntInt ntInt)
	(func19 ntString ntInt ntInt)
	(func20 ntString ntInt ntInt)
	(func23 ntString ntInt ntString ntString ntInt)
	(func24 ntString ntInt ntString ntString)
	(func26 ntString ntInt)
	(func28 ntString ntString ntInt)
	(func29 ntString ntString)
	(func30 ntString ntString ntString ntInt)
	(func31 ntString ntString ntString)
	(func34 ntString ntInt ntString)
	(func37 ntString ntInt)
	(func39 ntString ntInt ntInt ntInt)
	(func40 ntString ntInt ntInt)
	(func62 ntString)
	(str.++ ntString ntString)
	(str.at ntString ntInt)
	(int.to.str ntInt)
	(ite ntBool ntString ntString)
	(str.substr ntString ntInt ntInt)
))
 (ntInt Int (
	0 1 2 
	(func46 ntString ntString)
	(func47 ntString ntString)
	(func48 ntInt ntInt ntInt)
	(func50 ntInt ntString ntString)
	(func52 ntString ntString)
	(func55 ntInt ntString ntString ntInt)
	(func59 ntString)
	(func60 ntInt)
	(func61 ntInt)
	(+ ntInt ntInt)
	(- ntInt ntInt)
	(str.len ntString)
	(str.to.int ntString)
))
 (ntBool Bool (
	true false
	(= ntInt ntInt)
	(str.prefixof ntString ntString)
	(str.suffixof ntString ntString)
	(str.contains ntString ntString)
))
))
(constraint (= (f "University of Pennsylvania" "Phialdelphia, PA, USA") "University of Pennsylvania, Phialdelphia, PA, USA"))
(constraint (= (f "UCLA" "Los Angeles, CA") "UCLA, Los Angeles, CA, USA"))
(constraint (= (f "Cornell University" "Ithaca, New York, USA") "Cornell University, Ithaca, New York, USA"))
(constraint (= (f "Penn" "Philadelphia, PA, USA") "Penn, Philadelphia, PA, USA"))
(constraint (= (f "University of Maryland College Park" "College Park, MD") "University of Maryland College Park, College Park, MD, USA"))
(constraint (= (f "University of Michigan" "Ann Arbor, MI, USA") "University of Michigan, Ann Arbor, MI, USA"))
(constraint (= (f "UC Berkeley" "Berkeley, CA") "UC Berkeley, Berkeley, CA, USA"))
(constraint (= (f "MIT" "Cambridge, MA") "MIT, Cambridge, MA, USA"))
(constraint (= (f "Rice University" "Houston, TX") "Rice University, Houston, TX, USA"))
(constraint (= (f "Yale University" "New Haven, CT, USA") "Yale University, New Haven, CT, USA"))
(constraint (= (f "Columbia University" "New York, NY, USA") "Columbia University, New York, NY, USA"))
(constraint (= (f "NYU" "New York, New York, USA") "NYU, New York, New York, USA"))
(constraint (= (f "UC Berkeley" "Berkeley, CA") "UC Berkeley, Berkeley, CA, USA"))
(constraint (= (f "UIUC" "Urbana, IL") "UIUC, Urbana, IL, USA"))
(constraint (= (f "Temple University" "Philadelphia, PA") "Temple University, Philadelphia, PA, USA"))
(constraint (= (f "Harvard University" "Cambridge, MA, USA") "Harvard University, Cambridge, MA, USA"))
(constraint (= (f "University of Connecticut" "Storrs, CT, USA") "University of Connecticut, Storrs, CT, USA"))
(constraint (= (f "Drexel University" "Philadelphia, PA") "Drexel University, Philadelphia, PA, USA"))
(constraint (= (f "New Haven University" "New Haven, CT, USA") "New Haven University, New Haven, CT, USA"))
(constraint (= (f "University of California, Santa Barbara" "Santa Barbara, CA, USA") "University of California, Santa Barbara, Santa Barbara, CA, USA"))
(check-synth)
